50
4271

741 558
240 287
372 334
907 564
519 138
135 502
543 639
239 17
46 673
159 171
669 744
626 127
147 834
762 852
545 324
177 427
252 204
670 408
250 19
668 562
291 102
33 994
186 294
183 79
273 543
890 767
582 314
565 143
988 885
702 481
429 545
709 742
981 355
542 89
298 954
407 197
558 635
217 196
870 145
301 70
459 139
843 894
885 100
598 462
315 939
709 490
371 477
150 665
455 413
34 425
